\\ Original 

Maximize
objMaxJ17_objf:  + 1.0 R17

Subject To
 ADP: + R01 - R03 - R13 = 0.0
 ATP: - R01 + R03 + R13 = 0.0
 M1: + R01 - R02 - R10 = 0.0
 M10: + R12 = 0.0
 M11: - R14 + R13 = 0.0
 M12: - R16 +0.69999999999999995559 R14 = 0.0
 M13: +0.29999999999999998890 R14 - R15 = 0.0
 M2: - R03 + R02 + R11 = 0.0
 M3: + R03 - R04 - R06 - R18 = 0.0
 M4: - R05 + R04 = 0.0
 M5: + R16 + R05 +0.50000000000000000000 R08 - R17 = 0.0
 M6: - R07 + R06 = 0.0
 M7: + R07 - R08 = 0.0
 M8: - R09 +0.50000000000000000000 R08 +2.00000000000000000000 R18 = 0.0
 M9: - R11 + R10 - R12 - R13 = 0.0

Bounds
0.0 <= R01 <= 100.0
-1000.0 <= R02 <= 1000.0
0.0 <= R03 <= 1000.0
-1000.0 <= R04 <= 1000.0
-1000.0 <= R05 <= 1000.0
0.0 <= R06 <= 1000.0
0.0 <= R07 <= 1000.0
0.0 <= R08 <= 1000.0
0.0 <= R09 <= 1000.0
-1000.0 <= R10 <= 1000.0
-1000.0 <= R11 <= 1000.0
0.0 <= R12 <= 1000.0
0.0 <= R13 <= 1000.0
0.0 <= R14 <= 1000.0
0.0 <= R15 <= 1000.0
0.0 <= R16 <= 1000.0
0.0 <= R17 <= 1000.0
0.0 <= R18 <= 1000.0

END
